1376.04
0 80 55 39 60 88 18 58 82 53 95 5 79 75 91 13 37 86 47 19 41 52 51 22 25 34 83 70 42 49 63 65 85 40 68 21 62 74 54 45 84 4 78 38 93 26 44 28 30 8 72 77 2 89 11 35 33 46 43 16 92 20 87 9 32 90 14 23 56 10 67 31 36 7 64 97 50 27 98 71 48 99 94 17 57 61 66 81 24 3 69 73 29 6 76 12 15 1 59 96
